************************************************************************
file with basedata            : j60_43.bas
initial value random generator: 1880119217
************************************************************************
projects                      :  1
jobs (incl. supersource/sink ):  62
horizon                       :  338
RESOURCES
  - renewable                 :  4   R
  - nonrenewable              :  0   N
  - doubly constrained        :  0   D
************************************************************************
PROJECT INFORMATION:
pronr.  #jobs rel.date duedate tardcost  MPM-Time
    1     60      0       83       43       83
************************************************************************
PRECEDENCE RELATIONS:
jobnr.    #modes  #successors   successors
   1        1          3           2   3   4
   2        1          3           6  21  36
   3        1          1           8
   4        1          3           5  15  30
   5        1          3          13  32  39
   6        1          2           7  11
   7        1          3           9  14  34
   8        1          3          12  17  23
   9        1          3          10  18  19
  10        1          3          22  25  28
  11        1          3          26  29  31
  12        1          1          48
  13        1          1          55
  14        1          1          16
  15        1          3          20  40  54
  16        1          2          29  35
  17        1          1          28
  18        1          3          44  46  51
  19        1          2          22  27
  20        1          3          37  43  46
  21        1          2          26  39
  22        1          3          24  33  51
  23        1          3          24  49  50
  24        1          1          56
  25        1          2          30  31
  26        1          1          53
  27        1          1          40
  28        1          1          54
  29        1          3          37  38  41
  30        1          2          42  58
  31        1          3          41  42  43
  32        1          1          45
  33        1          1          50
  34        1          2          41  57
  35        1          3          38  46  52
  36        1          1          60
  37        1          3          39  45  59
  38        1          1          57
  39        1          1          61
  40        1          2          42  52
  41        1          3          48  50  51
  42        1          2          47  53
  43        1          1          47
  44        1          3          45  54  57
  45        1          1          58
  46        1          1          55
  47        1          1          49
  48        1          1          49
  49        1          1          56
  50        1          3          53  55  60
  51        1          1          52
  52        1          1          59
  53        1          1          56
  54        1          1          59
  55        1          1          61
  56        1          1          61
  57        1          1          58
  58        1          1          60
  59        1          1          62
  60        1          1          62
  61        1          1          62
  62        1          0        
************************************************************************
REQUESTS/DURATIONS:
jobnr. mode duration  R 1  R 2  R 3  R 4
------------------------------------------------------------------------
  1      1     0       0    0    0    0
  2      1    10       6   10    4    5
  3      1     7       6    4    4    1
  4      1     8       9    5    7    0
  5      1     4       8    7    0    3
  6      1     8       2    8    5    6
  7      1     9       5    7    0    0
  8      1     3       3    0    9    7
  9      1     3       0    3    1    0
 10      1    10       5   10    0   10
 11      1     8       6    3    9    7
 12      1     4       2    0    2    0
 13      1     4       9    1    4    0
 14      1     6       8    2    4    0
 15      1     4       6    7    7   10
 16      1     3       0    0    2    6
 17      1     6      10    7    9    2
 18      1     6       7    8    3    2
 19      1     8       1    2    7   10
 20      1     6      10    0    0    4
 21      1     4      10    3   10    0
 22      1     9       2    7    5    7
 23      1     3       7    6    9    3
 24      1    10       2    3    0    6
 25      1     4       7    0    6    0
 26      1     3       3    0    9    0
 27      1     7       0    0    0    1
 28      1     1       5    0    0    9
 29      1     9       0    5    6    0
 30      1     6       8    9    7    3
 31      1     2       1    0    4    9
 32      1     3       2    6    0    7
 33      1     6       0    2    7   10
 34      1     6       0    7    8    4
 35      1     6       5   10    1    3
 36      1     8       2    4    0    8
 37      1     3       0   10   10    0
 38      1     4       2    7    5    0
 39      1     9       6    5    0    7
 40      1     9       8    1    0    4
 41      1    10       7    6    6    0
 42      1     6       3    1    0    7
 43      1     6       0    7    8    6
 44      1     3       9    0    0    8
 45      1     2       7    4    3    5
 46      1     4      10    4    6    0
 47      1     6       2    8    9    0
 48      1     4       4    5    1    3
 49      1     5       8    0    9    0
 50      1     1       8    9    0    3
 51      1     4       3    1    9    1
 52      1     9       6    2    8    0
 53      1     2       9    3    7    1
 54      1    10       4    0    7    0
 55      1     1       4    1    0    0
 56      1    10       7    8    0    0
 57      1     6       4    0    7    1
 58      1     5       2    0    6    0
 59      1     4      10    4   10    9
 60      1     9       6    4    6    5
 61      1     2       1    5    6    9
 62      1     0       0    0    0    0
************************************************************************
RESOURCEAVAILABILITIES:
  R 1  R 2  R 3  R 4
   41   36   37   32
************************************************************************
